# force uwb97x/6-31G(d) nosymm guess=mix

Sample Gaussian16 input for single geometry (force call if needed)

0 1
C  0.0  -0.0044  0.0
C  0.0  0.0033  1.0
H  0.9747  -0.0044  -0.5381
H  -0.4799  -0.8117  -0.4868
H  -0.537  0.8952  -0.5461
C  -1.3852  0.0  1.7203
H  0.5454  -0.8857  1.5312
H  0.4949  0.8132  1.4807
H  -1.2886  0.0011  2.8102
H  -1.9594  0.8878  1.4136
H  -1.955  -0.8856  1.4158



